100 20 100
95 31 52 45 6 20 16 70 45 10 34 92 37 35 18 33 45 42 38 61 58 99 33 76 56 31 56 90 24 78 21 72 61 73 17 19 93 85 89 90 95 24 34 85 11 52 70 56 46 60 17 57 60 3 33 16 86 41 58 10 71 79 34 32 52 3 4 97 40 93 39 36 69 74 73 80 78 43 88 25 4 58 34 64 13 67 32 99 60 90 61 32 21 96 16 73 51 20 22 92 
